WARNING: for repeatability, setting FPU to use double precision
 -----------------------------------------------------------------------------------------------------------------------
|                                 manysat2.0    4 thread(s) on 8 core(s)                                                |
 -----------------------------------------------------------------------------------------------------------------------
 ===============================================[ Problem Statistics ]==================================================
|                                                                                                                       |
|  Number of cores:                 4                                                                                   |
|  Number of variables:          4128                                                                                   |
|  Number of clauses:           72259                                                                                   |
|  Parse time:                   0.08 s                                                                                 |
|                                                                                                                       |
 ==============================================[ Search Statistics ]====================================================
|   Thread  | Conflicts |          ORIGINAL         |          LEARNT          |  exported  / imported      |  Progress |
|    (id)   |           |    Vars  Clauses Literals |    Limit  Clauses Lit/Cl |  (clauses by restart)      |           |
 =======================================================================================================================
|         0 |       100 |    3234    60822   342960 |    22301       97      3 |           0  -           0 | 21.657 %  |
|         1 |       100 |    3232    60822   342960 |    26494      422      4 |        1787  -         325 | 21.705 %  |
|         3 |       100 |    3234    60822   342960 |    26494      459      4 |        1791  -         356 | 21.657 %  |
|         0 |       250 |    3232    60822   342960 |    24531      659      4 |        1788  -         413 | 21.705 %  |
|         2 |       100 |    3237    60822   342960 |    26494      672      4 |        2683  -         570 | 21.584 %  |
|         1 |       250 |    3232    60822   342960 |    29144      903      4 |        1789  -         656 | 21.705 %  |
|         3 |       250 |    3232    60822   342960 |    29144     1024      4 |        1793  -         771 | 21.705 %  |
|         2 |       250 |    3232    60822   342960 |    29144     1281      4 |        2685  -        1029 | 21.705 %  |
|         1 |       475 |    3231    60822   342960 |    32058     1715      4 |        1789  -        1242 | 21.730 %  |
|         0 |       475 |    3231    60822   342960 |    26984     1771      4 |        1788  -        1301 | 21.730 %  |
|         3 |       475 |    3231    60822   342960 |    32058     1813      4 |        1793  -        1335 | 21.730 %  |
|         2 |       475 |    3231    60822   342960 |    32058     2238      5 |        2691  -        1761 | 21.730 %  |
|         1 |       812 |    3231    60822   342960 |    35264     2835      5 |        1795  -        2025 | 21.730 %  |
|         3 |       812 |    3230    60822   342960 |    35264     3023      5 |        1793  -        2209 | 21.754 %  |
|         0 |       812 |    3231    60822   342960 |    29683     3228      5 |        1794  -        2421 | 21.730 %  |
|         2 |       812 |    3230    60822   342960 |    35264     3801      5 |        2691  -        2986 | 21.754 %  |
|         1 |      1318 |    3230    60822   342960 |    38791     4764      5 |        1795  -        3448 | 21.754 %  |
|         3 |      1318 |    3230    60822   342960 |    38791     4951      5 |        1793  -        3631 | 21.754 %  |
|         0 |      1318 |    3230    60822   342960 |    32651     5210      5 |        1794  -        3897 | 21.754 %  |
|         2 |      1318 |    3230    60822   342960 |    38791     5813      5 |        2691  -        4492 | 21.754 %  |
|         1 |      2077 |    3230    60822   342960 |    42670     7592      5 |        1795  -        5516 | 21.754 %  |
|         3 |      2077 |    3230    60822   342960 |    42670     7850      5 |        1793  -        5771 | 21.754 %  |
|         0 |      2077 |    3230    60822   342960 |    35916     8213      5 |        1795  -        6141 | 21.754 %  |
|         2 |      2077 |    3230    60822   342960 |    42670     8716      5 |        2692  -        6636 | 21.754 %  |
|         1 |      3216 |    3227    60822   342960 |    46937    11723      6 |        1797  -        8510 | 21.827 %  |
|         3 |      3216 |    3227    60822   342960 |    46937    11790      6 |        1798  -        8574 | 21.827 %  |
|         0 |      3216 |    3229    60822   342960 |    39508    12553      6 |        2701  -        9342 | 21.778 %  |
|         2 |      3216 |    3227    60822   342960 |    46937    12813      6 |        2698  -        9595 | 21.827 %  |
|         1 |      4924 |    3227    60822   342960 |    51631    17075      6 |        2699  -       12154 | 21.827 %  |
|         3 |      4924 |    3227    60822   342960 |    51631    17508      7 |        2700  -       12584 | 21.827 %  |
|         2 |      4924 |    3226    60591   341828 |    51631    17958      6 |        2698  -       13042 | 21.851 %  |
|         0 |      4924 |    3227    60822   342960 |    43459    18207      6 |        2703  -       13288 | 21.827 %  |
|         2 |      7486 |    3225    60591   341828 |    56794    24739      7 |        2700  -       17262 | 21.875 %  |
|         1 |      7486 |    3225    60591   341828 |    56794    25241      6 |        2700  -       17767 | 21.875 %  |
|         3 |      7486 |    3226    60591   341828 |    56794    26413      7 |        2704  -       18935 | 21.851 %  |
|         0 |      7486 |    3226    60591   341828 |    47805    27021      7 |        2707  -       19549 | 21.851 %  |
|         2 |     11330 |    3225    60591   341828 |    62473    36328      8 |        2715  -       25007 | 21.875 %  |
|         1 |     11330 |    3224    60591   341828 |    62473    36421      8 |        2714  -       25104 | 21.899 %  |
|         3 |     11330 |    3221    60591   341828 |    62473    36561      8 |        2713  -       25240 | 21.972 %  |
|         0 |     11330 |    3222    60591   341828 |    52585    37086      8 |        2712  -       25772 | 21.948 %  |
|         1 |     17096 |    3221    60502   341493 |    68721    47776     13 |        2714  -       30697 | 21.972 %  |
|         2 |     17096 |    3221    60502   341493 |    68721    48623     14 |        2715  -       31540 | 21.972 %  |
|         0 |     17096 |    3221    60502   341493 |    57844    48801     14 |        2712  -       31725 | 21.972 %  |
|         3 |     17096 |    3221    60502   341493 |    68721    48833     13 |        2713  -       31750 | 21.972 %  |
|         1 |     25745 |    3220    60480   341411 |    75593    66336     16 |        2724  -       40613 | 21.996 %  |
|         2 |     25745 |    3220    60480   341411 |    75593    66240     16 |        2724  -       40513 | 21.996 %  |
|         0 |     25745 |    3220    60480   341411 |    63628    35629     18 |        2724  -       39762 | 21.996 %  |
|         3 |     25745 |    3220    60480   341411 |    75593    70374     16 |        2724  -       44647 | 21.996 %  |
|         0 |     38719 |    3220    60480   341411 |    69991    57091     25 |        2724  -       48250 | 21.996 %  |
|         2 |     38719 |    3220    60480   341411 |    83152    48784     24 |        2724  -       50989 | 21.996 %  |
|         1 |     38719 |    3220    60480   341411 |    83152    53421     29 |        2724  -       53012 | 21.996 %  |
|         3 |     38719 |    3220    60480   341411 |    83152    54018     30 |        2724  -       55726 | 21.996 %  |
|         0 |     58180 |    3220    60480   341411 |    76990    51753     42 |        2724  -       60330 | 21.996 %  |
|         1 |     58180 |    3220    60480   341411 |    91467    84179     39 |        2724  -       64309 | 21.996 %  |
|         2 |     58180 |    3220    60480   341411 |    91467    80977     39 |        2724  -       63721 | 21.996 %  |
|         3 |     58180 |    3220    60480   341411 |    91467    85807     39 |        2724  -       68054 | 21.996 %  |
|         0 |     87372 |    3220    60480   341411 |    84689    63587     28 |        2724  -       87006 | 21.996 %  |
|         1 |     87372 |    3220    60480   341411 |   100614    72264     31 |        2724  -       88444 | 21.996 %  |
|         2 |     87372 |    3220    60480   341411 |   100614    78877     37 |        2724  -       92108 | 21.996 %  |
|         3 |     87372 |    3220    60480   341411 |   100614    87033     36 |        2724  -      100097 | 21.996 %  |
|         2 |    131161 |    3220    60480   341411 |   110676    79366     35 |        2724  -      117496 | 21.996 %  |
|         0 |    131161 |    3220    60480   341411 |    93158    85703     51 |        2724  -      120647 | 21.996 %  |
|         1 |    131161 |    3220    60480   341411 |   110676    84834     47 |        2724  -      123481 | 21.996 %  |
|         3 |    131161 |    3220    60480   341411 |   110676    95051     39 |        2724  -      130126 | 21.996 %  |
|         0 |    196845 |    3220    60480   341411 |   102474    55898     40 |        2724  -      150958 | 21.996 %  |
|         2 |    196845 |    3220    60480   341411 |   121743   113146     49 |        2724  -      161109 | 21.996 %  |
|         3 |    196845 |    3220    60480   341411 |   121743    43025     52 |        2724  -      174248 | 21.996 %  |
|         1 |    196845 |    3220    60480   341411 |   121743    47577     46 |        2724  -      178785 | 21.996 %  |
|         1 |    295371 |    3220    60480   341411 |   133918    93665     48 |        2724  -      227574 | 21.996 %  |
|         2 |    295371 |    3220    60480   341411 |   133918   102686     54 |        2724  -      242349 | 21.996 %  |
|         0 |    295371 |    3220    60480   341411 |   112721    98200     55 |        2724  -      236311 | 21.996 %  |
|         3 |    295371 |    3220    60480   341411 |   133918   102062     47 |        2724  -      235534 | 21.996 %  |
|         1 |    443160 |    3220    60480   341411 |   147309   109004     51 |        2724  -      306038 | 21.996 %  |
|         2 |    443160 |    3220    60480   341411 |   147309   133650     60 |        2724  -      333676 | 21.996 %  |
|         3 |    443160 |    3220    60480   341411 |   147309   133510     48 |        2724  -      317948 | 21.996 %  |
|         0 |    443160 |    3220    60480   341411 |   123993    86874     68 |        2724  -      325549 | 21.996 %  |
|         1 |    664843 |    3220    60480   341411 |   162040    74386     52 |        2724  -      409594 | 21.996 %  |
|         0 |    664843 |    3220    60480   341411 |   136393   114891     55 |        2724  -      423666 | 21.996 %  |
|         3 |    664843 |    3220    60480   341411 |   162040   104608     67 |        2724  -      429121 | 21.996 %  |
|         2 |    664843 |    3220    60480   341411 |   162040   120341     69 |        2724  -      452567 | 21.996 %  |
|         1 |    997368 |    3220    60480   341411 |   178244   124441     87 |        2724  -      554720 | 21.996 %  |
|         0 |    997368 |    3220    60480   341411 |   150032    39895     55 |        2724  -      569373 | 21.996 %  |
|         3 |    997368 |    3220    60480   341411 |   178244    55719     50 |        2724  -      594861 | 21.996 %  |
|         2 |    997368 |    3220    60480   341411 |   178244    89109     57 |        2724  -      631034 | 21.996 %  |
|         0 |   1496156 |    3220    60480   341411 |   165035   116165    168 |        2724  -      764408 | 21.996 %  |
|         1 |   1496156 |    3220    60480   341411 |   196069   109025     88 |        2724  -      787992 | 21.996 %  |
|         3 |   1496156 |    3220    60480   341411 |   196069   118652     86 |        2724  -      789024 | 21.996 %  |
|         2 |   1496156 |    3220    60480   341411 |   196069    35666     81 |        2724  -      830852 | 21.996 %  |
|         0 |   2244338 |    3220    60480   341411 |   181539   106364     80 |        2724  -     1007353 | 21.996 %  |
|         3 |   2244338 |    3220    60480   341411 |   215676   134069     68 |        2724  -     1063774 | 21.996 %  |
|         1 |   2244338 |    3220    60480   341411 |   215676   151926     73 |        2724  -     1090050 | 21.996 %  |
|         2 |   2244338 |    3220    60480   341411 |   215676    93219     65 |        2724  -     1157035 | 21.996 %  |
|         0 |   3366612 |    3220    60480   341411 |   199693    30998     93 |        2724  -     1237647 | 21.996 %  |
|         1 |   3366612 |    3220    60480   341411 |   237243   126659    126 |        2724  -     1315549 | 21.996 %  |
|         3 |   3366612 |    3220    60480   341411 |   237243   180082    140 |        2724  -     1349499 | 21.996 %  |
|         2 |   3366612 |    3220    60480   341411 |   237243   105030    100 |        2724  -     1394021 | 21.996 %  |
|         0 |   5050023 |    3220    60480   341411 |   219662    61634    293 |        2724  -     1555727 | 21.996 %  |
|         1 |   5050023 |    3220    60480   341411 |   260968    33945    183 |        2724  -     1722888 | 21.996 %  |
|         2 |   5050023 |    3220    60480   341411 |   260968    42097     53 |        2724  -     1787845 | 21.996 %  |
|         3 |   5050023 |    3220    60480   341411 |   260968   183960     96 |        2724  -     1776907 | 21.996 %  |
|         0 |   7575139 |    3220    60480   341411 |   241629    73257     86 |        2724  -     2000066 | 21.996 %  |
|         2 |   7575139 |    3220    60480   341411 |   287065   227120    127 |        2724  -     2312603 | 21.996 %  |
|         1 |   7575139 |    3220    60480   341411 |   287065   244299    148 |        2724  -     2255094 | 21.996 %  |
|         3 |   7575139 |    3220    60480   341411 |   287065   201723     91 |        2724  -     2322690 | 21.996 %  |
|         0 |  11362814 |    3220    60480   341411 |   265792   216364    148 |        2724  -     2718691 | 21.996 %  |
|         1 |  11362814 |    3220    60480   341411 |   315771   140893    142 |        2724  -     2814907 | 21.996 %  |
|         2 |  11362814 |    3220    60480   341411 |   315771   198128    112 |        2724  -     2997591 | 21.996 %  |
|         3 |  11362814 |    3220    60480   341411 |   315771   196011    217 |        2724  -     3005192 | 21.996 %  |
 =======================================================================================================================
 -----------------------------------------------------------------------------------------------------------------------
| ManySAT 2.2 - all threads statistics           DETERMINISTIC MODE ? N              initial limit export clauses :  10 |
|-----------------------------------------------------------------------------------------------------------------------|
|  Thread  | winner  |   #restarts   |   decisions   |  #conflicts   |   % shared cls  |  #extra units | #extra clauses |         
|----------|---------|---------------|---------------|---------------|-----------------|---------------|----------------|
|        0 |       x |            28 |      31450884 |      16423274 |            20 % |          2724 |        3348602 |
|        1 |         |            28 |      29867451 |      15833846 |            22 % |          2724 |        3483112 |
|        2 |         |            28 |      27702400 |      15241356 |            23 % |          2724 |        3630504 |
|        3 |         |            28 |      28067443 |      15191892 |            23 % |          2724 |        3579927 |
|----------------------------------------------------|---------------|-----------------|---------------|----------------|
|                                                    |      62690368 |            22 % |         10896 |       14042145 |
 -----------------------------------------------------------------------------------------------------------------------
 DETERMINISTIC_MODE? : NO 
 CONTROL POLICY?	 : STATIC (fixed Limit Export Clauses)  
 LIMIT EXPORT CLAUSES (PAIRWISE) : [identity] x 10

  ----------------------------------------         
   winner:  more statistics           
  ----------------------------------------         
  restarts              : 28
  conflicts             : 16423274       (1642 /sec)
  decisions             : 31450884       (1.32 % random) (3145 /sec)
  propagations          : 2139737741     (213987 /sec)
  conflict literals     : 2922603698     (15.53 % deleted)
  Memory used           : 1673.00 MB
  CPU time              : 9999.37 s

SATISFIABLE
